Maximize
  -0 x0 + -0 x1 + -0 x2 + -0 x3 + -0 x4 + -0 x5 + -0 x6 + 2 w0 + 3 w1 + 6 w2
   + 7 w3 + 5 w4 + 9 w5 + 4 w6 + 21 Constant
Subject To
Bounds
 Constant = 1
Binaries
 x0 x1 x2 x3 x4 x5 x6
Generals
 w0 w1 w2 w3 w4 w5 w6
End
